objective value:                                12144
t_x_2                                               1 	(obj:32)
t_x_3                                               1 	(obj:12)
t_x_5                                               1 	(obj:30)
t_x_10                                              1 	(obj:8)
t_x_12                                              1 	(obj:27)
t_x_13                                              1 	(obj:15)
t_x_15                                              1 	(obj:16)
t_x_18                                              1 	(obj:67)
t_x_20                                              1 	(obj:0)
t_x_27                                              1 	(obj:16)
t_x_33                                              1 	(obj:19)
t_x_46                                              1 	(obj:28)
t_x_47                                              1 	(obj:20)
t_x_57                                              1 	(obj:19)
t_x_58                                              1 	(obj:17)
t_x_61                                              1 	(obj:50)
t_x_63                                              1 	(obj:20)
t_x_68                                              1 	(obj:18)
t_x_69                                              1 	(obj:73)
t_x_71                                              1 	(obj:22)
t_x_73                                              1 	(obj:26)
t_x_74                                              1 	(obj:13)
t_x_75                                              1 	(obj:24)
t_x_76                                              1 	(obj:76)
t_x_80                                              1 	(obj:9)
t_x_83                                              1 	(obj:43)
t_x_84                                              1 	(obj:4)
t_x_85                                              1 	(obj:18)
t_x_88                                              1 	(obj:14)
t_x_91                                              1 	(obj:9)
t_x_96                                              1 	(obj:14)
t_x_99                                              1 	(obj:20)
t_x_112                                             1 	(obj:9)
t_x_115                                             1 	(obj:0)
t_x_116                                             1 	(obj:25)
t_x_118                                             1 	(obj:29)
t_x_120                                             1 	(obj:10)
t_x_125                                             1 	(obj:7)
t_x_127                                             1 	(obj:8)
t_x_129                                             1 	(obj:8)
t_x_136                                             1 	(obj:12)
t_x_141                                             1 	(obj:1)
t_x_143                                             1 	(obj:34)
t_x_146                                             1 	(obj:19)
t_x_148                                             1 	(obj:32)
t_x_151                                             1 	(obj:24)
t_x_155                                             1 	(obj:8)
t_x_163                                             1 	(obj:24)
t_x_166                                             1 	(obj:20)
t_x_175                                             1 	(obj:10)
t_x_178                                             1 	(obj:37)
t_x_180                                             1 	(obj:37)
t_x_181                                             1 	(obj:9)
t_x_184                                             1 	(obj:4)
t_x_185                                             1 	(obj:17)
t_x_187                                             1 	(obj:0)
t_x_188                                             1 	(obj:25)
t_x_191                                             1 	(obj:8)
t_x_193                                             1 	(obj:4)
t_x_194                                             1 	(obj:16)
t_x_197                                             1 	(obj:43)
t_x_198                                             1 	(obj:45)
t_x_205                                             1 	(obj:59)
t_x_209                                             1 	(obj:60)
t_x_219                                             1 	(obj:5)
t_x_221                                             1 	(obj:27)
t_x_223                                             1 	(obj:4)
t_x_229                                             1 	(obj:32)
t_x_230                                             1 	(obj:13)
t_x_238                                             1 	(obj:36)
t_x_240                                             1 	(obj:41)
t_x_241                                             1 	(obj:8)
t_x_246                                             1 	(obj:18)
t_x_247                                             1 	(obj:3)
t_x_248                                             1 	(obj:47)
t_x_251                                             1 	(obj:2)
t_x_253                                             1 	(obj:3)
t_x_258                                             1 	(obj:26)
t_x_263                                             1 	(obj:26)
t_x_264                                             1 	(obj:11)
t_x_266                                             1 	(obj:3)
t_x_267                                             1 	(obj:42)
t_x_268                                             1 	(obj:0)
t_x_270                                             1 	(obj:25)
t_x_271                                             1 	(obj:26)
t_x_280                                             1 	(obj:37)
t_x_285                                             1 	(obj:7)
t_x_290                                             1 	(obj:3)
t_x_293                                             1 	(obj:14)
t_x_297                                             1 	(obj:17)
t_x_301                                             1 	(obj:42)
t_x_305                                             1 	(obj:11)
t_x_307                                             1 	(obj:5)
t_x_311                                             1 	(obj:12)
t_x_316                                             1 	(obj:17)
t_x_322                                             1 	(obj:8)
t_x_324                                             1 	(obj:9)
t_x_325                                             1 	(obj:2)
t_x_327                                             1 	(obj:15)
t_x_336                                             1 	(obj:24)
t_x_341                                             1 	(obj:2)
t_x_344                                             1 	(obj:17)
t_x_348                                             1 	(obj:54)
t_x_351                                             1 	(obj:21)
t_x_352                                             1 	(obj:15)
t_x_355                                             1 	(obj:49)
t_x_357                                             1 	(obj:6)
t_x_358                                             1 	(obj:44)
t_x_360                                             1 	(obj:16)
t_x_375                                             1 	(obj:5)
t_x_378                                             1 	(obj:5)
t_x_380                                             1 	(obj:32)
t_x_384                                             1 	(obj:17)
t_x_386                                             1 	(obj:27)
t_x_396                                             1 	(obj:5)
t_x_397                                             1 	(obj:71)
t_x_404                                             1 	(obj:18)
t_x_405                                             1 	(obj:2)
t_x_408                                             1 	(obj:12)
t_x_409                                             1 	(obj:52)
t_x_413                                             1 	(obj:16)
t_x_416                                             1 	(obj:11)
t_x_432                                             1 	(obj:3)
t_x_434                                             1 	(obj:8)
t_x_435                                             1 	(obj:27)
t_x_436                                             1 	(obj:3)
t_x_438                                             1 	(obj:4)
t_x_441                                             1 	(obj:10)
t_x_443                                             1 	(obj:29)
t_x_452                                             1 	(obj:2)
t_x_455                                             1 	(obj:16)
t_x_458                                             1 	(obj:26)
t_x_461                                             1 	(obj:38)
t_x_466                                             1 	(obj:11)
t_x_467                                             1 	(obj:27)
t_x_471                                             1 	(obj:3)
t_x_473                                             1 	(obj:4)
t_x_475                                             1 	(obj:20)
t_x_477                                             1 	(obj:52)
t_x_480                                             1 	(obj:17)
t_x_484                                             1 	(obj:33)
t_x_486                                             1 	(obj:9)
t_x_488                                             1 	(obj:7)
t_x_489                                             1 	(obj:16)
t_x_491                                             1 	(obj:2)
t_x_495                                             1 	(obj:9)
t_x_497                                             1 	(obj:5)
t_x_498                                             1 	(obj:25)
t_x_500                                             1 	(obj:28)
t_x_501                                             1 	(obj:16)
t_x_505                                             1 	(obj:16)
t_x_506                                             1 	(obj:26)
t_x_507                                             1 	(obj:17)
t_x_509                                             1 	(obj:21)
t_x_514                                             1 	(obj:6)
t_x_523                                             1 	(obj:27)
t_x_524                                             1 	(obj:28)
t_x_537                                             1 	(obj:8)
t_x_539                                             1 	(obj:43)
t_x_545                                             1 	(obj:5)
t_x_546                                             1 	(obj:24)
t_x_556                                             1 	(obj:21)
t_x_561                                             1 	(obj:14)
t_x_562                                             1 	(obj:24)
t_x_566                                             1 	(obj:36)
t_x_570                                             1 	(obj:25)
t_x_571                                             1 	(obj:68)
t_x_574                                             1 	(obj:0)
t_x_587                                             1 	(obj:24)
t_x_593                                             1 	(obj:13)
t_x_599                                             1 	(obj:4)
t_x_600                                             1 	(obj:24)
t_x_605                                             1 	(obj:10)
t_x_608                                             1 	(obj:33)
t_x_613                                             1 	(obj:24)
t_x_614                                             1 	(obj:22)
t_x_618                                             1 	(obj:2)
t_x_622                                             1 	(obj:56)
t_x_626                                             1 	(obj:6)
t_x_630                                             1 	(obj:29)
t_x_634                                             1 	(obj:14)
t_x_635                                             1 	(obj:9)
t_x_638                                             1 	(obj:24)
t_x_644                                             1 	(obj:13)
t_x_645                                             1 	(obj:15)
t_x_647                                             1 	(obj:20)
t_x_653                                             1 	(obj:30)
t_x_655                                             1 	(obj:25)
t_x_657                                             1 	(obj:1)
t_x_662                                             1 	(obj:38)
t_x_669                                             1 	(obj:31)
t_x_672                                             1 	(obj:12)
t_x_673                                             1 	(obj:46)
t_x_677                                             1 	(obj:19)
t_x_680                                             1 	(obj:52)
t_x_688                                             1 	(obj:13)
t_x_695                                             1 	(obj:23)
t_x_700                                             1 	(obj:18)
t_x_702                                             1 	(obj:22)
t_x_707                                             1 	(obj:45)
t_x_708                                             1 	(obj:10)
t_x_713                                             1 	(obj:26)
t_x_714                                             1 	(obj:15)
t_x_715                                             1 	(obj:19)
t_x_726                                             1 	(obj:15)
t_x_728                                             1 	(obj:26)
t_x_733                                             1 	(obj:4)
t_x_737                                             1 	(obj:19)
t_x_742                                             1 	(obj:35)
t_x_744                                             1 	(obj:36)
t_x_745                                             1 	(obj:9)
t_x_749                                             1 	(obj:40)
t_x_752                                             1 	(obj:25)
t_x_760                                             1 	(obj:10)
t_x_762                                             1 	(obj:8)
t_x_766                                             1 	(obj:53)
t_x_767                                             1 	(obj:14)
t_x_768                                             1 	(obj:14)
t_x_772                                             1 	(obj:8)
t_x_773                                             1 	(obj:31)
t_x_774                                             1 	(obj:15)
t_x_781                                             1 	(obj:9)
t_x_782                                             1 	(obj:4)
t_x_784                                             1 	(obj:42)
t_x_787                                             1 	(obj:21)
t_x_790                                             1 	(obj:29)
t_x_791                                             1 	(obj:9)
t_x_794                                             1 	(obj:12)
t_x_798                                             1 	(obj:21)
t_x_805                                             1 	(obj:12)
t_x_808                                             1 	(obj:24)
t_x_809                                             1 	(obj:70)
t_x_814                                             1 	(obj:27)
t_x_816                                             1 	(obj:13)
t_x_819                                             1 	(obj:2)
t_x_820                                             1 	(obj:13)
t_x_827                                             1 	(obj:19)
t_x_828                                             1 	(obj:24)
t_x_829                                             1 	(obj:34)
t_x_831                                             1 	(obj:27)
t_x_836                                             1 	(obj:4)
t_x_837                                             1 	(obj:25)
t_x_841                                             1 	(obj:19)
t_x_843                                             1 	(obj:5)
t_x_845                                             1 	(obj:17)
t_x_847                                             1 	(obj:2)
t_x_852                                             1 	(obj:18)
t_x_856                                             1 	(obj:25)
t_x_861                                             1 	(obj:5)
t_x_862                                             1 	(obj:32)
t_x_863                                             1 	(obj:31)
t_x_864                                             1 	(obj:47)
t_x_865                                             1 	(obj:53)
t_x_866                                             1 	(obj:0)
t_x_867                                             1 	(obj:23)
t_x_871                                             1 	(obj:10)
t_x_872                                             1 	(obj:34)
t_x_873                                             1 	(obj:29)
t_x_874                                             1 	(obj:26)
t_x_876                                             1 	(obj:2)
t_x_877                                             1 	(obj:10)
t_x_883                                             1 	(obj:3)
t_x_885                                             1 	(obj:18)
t_x_887                                             1 	(obj:36)
t_x_890                                             1 	(obj:33)
t_x_892                                             1 	(obj:4)
t_x_893                                             1 	(obj:9)
t_x_896                                             1 	(obj:14)
t_x_897                                             1 	(obj:27)
t_x_909                                             1 	(obj:21)
t_x_910                                             1 	(obj:25)
t_x_921                                             1 	(obj:7)
t_x_926                                             1 	(obj:24)
t_x_929                                             1 	(obj:18)
t_x_933                                             1 	(obj:33)
t_x_934                                             1 	(obj:12)
t_x_935                                             1 	(obj:2)
t_x_936                                             1 	(obj:12)
t_x_939                                             1 	(obj:8)
t_x_940                                             1 	(obj:6)
t_x_941                                             1 	(obj:10)
t_x_942                                             1 	(obj:3)
t_x_944                                             1 	(obj:9)
t_x_945                                             1 	(obj:9)
t_x_947                                             1 	(obj:27)
t_x_948                                             1 	(obj:6)
t_x_951                                             1 	(obj:21)
t_x_953                                             1 	(obj:3)
t_x_954                                             1 	(obj:6)
t_x_957                                             1 	(obj:14)
t_x_962                                             1 	(obj:25)
t_x_964                                             1 	(obj:4)
t_x_974                                             1 	(obj:56)
t_x_985                                             1 	(obj:13)
t_x_989                                             1 	(obj:28)
t_x_993                                             1 	(obj:10)
t_x_995                                             1 	(obj:6)
t_x_996                                             1 	(obj:4)
t_x_997                                             1 	(obj:24)
t_x_1001                                            1 	(obj:25)
t_x_1004                                            1 	(obj:42)
t_x_1010                                            1 	(obj:21)
t_x_1013                                            1 	(obj:0)
t_x_1014                                            1 	(obj:19)
t_x_1020                                            1 	(obj:38)
t_x_1021                                            1 	(obj:3)
t_x_1026                                            1 	(obj:12)
t_x_1027                                            1 	(obj:48)
t_x_1032                                            1 	(obj:8)
t_x_1035                                            1 	(obj:17)
t_x_1037                                            1 	(obj:26)
t_x_1039                                            1 	(obj:20)
t_x_1040                                            1 	(obj:34)
t_x_1043                                            1 	(obj:28)
t_x_1048                                            1 	(obj:23)
t_x_1049                                            1 	(obj:10)
t_x_1050                                            1 	(obj:54)
t_x_1053                                            1 	(obj:28)
t_x_1054                                            1 	(obj:0)
t_x_1057                                            1 	(obj:10)
t_x_1063                                            1 	(obj:40)
t_x_1065                                            1 	(obj:24)
t_x_1066                                            1 	(obj:22)
t_x_1070                                            1 	(obj:23)
t_x_1073                                            1 	(obj:4)
t_x_1084                                            1 	(obj:25)
t_x_1089                                            1 	(obj:17)
t_x_1090                                            1 	(obj:12)
t_x_1099                                            1 	(obj:34)
t_x_1101                                            1 	(obj:9)
t_x_1105                                            1 	(obj:13)
t_x_1107                                            1 	(obj:25)
t_x_1109                                            1 	(obj:35)
t_x_1111                                            1 	(obj:33)
t_x_1112                                            1 	(obj:17)
t_x_1113                                            1 	(obj:54)
t_x_1118                                            1 	(obj:28)
t_x_1119                                            1 	(obj:20)
t_x_1131                                            1 	(obj:6)
t_x_1132                                            1 	(obj:29)
t_x_1135                                            1 	(obj:29)
t_x_1136                                            1 	(obj:39)
t_x_1140                                            1 	(obj:13)
t_x_1141                                            1 	(obj:26)
t_x_1143                                            1 	(obj:17)
t_x_1145                                            1 	(obj:6)
t_x_1159                                            1 	(obj:21)
t_x_1162                                            1 	(obj:3)
t_x_1163                                            1 	(obj:3)
t_x_1170                                            1 	(obj:9)
t_x_1173                                            1 	(obj:35)
t_x_1174                                            1 	(obj:20)
t_x_1177                                            1 	(obj:18)
t_x_1179                                            1 	(obj:1)
t_x_1180                                            1 	(obj:42)
t_x_1182                                            1 	(obj:11)
t_x_1184                                            1 	(obj:42)
t_x_1186                                            1 	(obj:6)
t_x_1191                                            1 	(obj:19)
t_x_1195                                            1 	(obj:6)
t_x_1198                                            1 	(obj:29)
t_x_1204                                            1 	(obj:8)
t_x_1206                                            1 	(obj:9)
t_x_1207                                            1 	(obj:5)
t_x_1209                                            1 	(obj:27)
t_x_1211                                            1 	(obj:7)
t_x_1215                                            1 	(obj:23)
t_x_1216                                            1 	(obj:11)
t_x_1220                                            1 	(obj:18)
t_x_1222                                            1 	(obj:42)
t_x_1231                                            1 	(obj:2)
t_x_1232                                            1 	(obj:13)
t_x_1233                                            1 	(obj:13)
t_x_1236                                            1 	(obj:17)
t_x_1238                                            1 	(obj:8)
t_x_1239                                            1 	(obj:31)
t_x_1243                                            1 	(obj:16)
t_x_1244                                            1 	(obj:2)
t_x_1245                                            1 	(obj:6)
t_x_1246                                            1 	(obj:13)
t_x_1254                                            1 	(obj:0)
t_x_1258                                            1 	(obj:14)
t_x_1260                                            1 	(obj:32)
t_x_1261                                            1 	(obj:50)
t_x_1264                                            1 	(obj:9)
t_x_1267                                            1 	(obj:20)
t_x_1269                                            1 	(obj:35)
t_x_1270                                            1 	(obj:19)
t_x_1275                                            1 	(obj:15)
t_x_1276                                            1 	(obj:3)
t_x_1277                                            1 	(obj:11)
t_x_1280                                            1 	(obj:58)
t_x_1288                                            1 	(obj:19)
t_x_1289                                            1 	(obj:8)
t_x_1290                                            1 	(obj:16)
t_x_1291                                            1 	(obj:5)
t_x_1294                                            1 	(obj:25)
t_x_1295                                            1 	(obj:13)
t_x_1298                                            1 	(obj:19)
t_x_1301                                            1 	(obj:7)
t_x_1305                                            1 	(obj:51)
t_x_1309                                            1 	(obj:14)
t_x_1310                                            1 	(obj:5)
t_x_1313                                            1 	(obj:0)
t_x_1316                                            1 	(obj:46)
t_x_1319                                            1 	(obj:10)
t_x_1330                                            1 	(obj:9)
t_x_1331                                            1 	(obj:20)
t_x_1332                                            1 	(obj:40)
t_x_1333                                            1 	(obj:4)
t_x_1339                                            1 	(obj:19)
t_x_1340                                            1 	(obj:0)
t_x_1341                                            1 	(obj:0)
t_x_1343                                            1 	(obj:5)
t_x_1347                                            1 	(obj:22)
t_x_1349                                            1 	(obj:24)
t_x_1351                                            1 	(obj:22)
t_x_1353                                            1 	(obj:30)
t_x_1357                                            1 	(obj:30)
t_x_1361                                            1 	(obj:12)
t_x_1362                                            1 	(obj:5)
t_x_1364                                            1 	(obj:15)
t_x_1368                                            1 	(obj:25)
t_x_1376                                            1 	(obj:36)
t_x_1381                                            1 	(obj:1)
t_x_1382                                            1 	(obj:23)
t_x_1389                                            1 	(obj:46)
t_x_1390                                            1 	(obj:38)
t_x_1394                                            1 	(obj:7)
t_x_1395                                            1 	(obj:0)
t_x_1401                                            1 	(obj:6)
t_x_1403                                            1 	(obj:13)
t_x_1409                                            1 	(obj:44)
t_x_1411                                            1 	(obj:29)
t_x_1413                                            1 	(obj:45)
t_x_1415                                            1 	(obj:42)
t_x_1416                                            1 	(obj:18)
t_x_1419                                            1 	(obj:34)
t_x_1420                                            1 	(obj:46)
t_x_1421                                            1 	(obj:15)
t_x_1422                                            1 	(obj:24)
t_x_1427                                            1 	(obj:51)
t_x_1428                                            1 	(obj:30)
t_x_1430                                            1 	(obj:0)
t_x_1433                                            1 	(obj:22)
t_x_1434                                            1 	(obj:33)
t_x_1436                                            1 	(obj:8)
t_x_1437                                            1 	(obj:34)
t_x_1438                                            1 	(obj:52)
t_x_1442                                            1 	(obj:27)
t_x_1447                                            1 	(obj:0)
t_x_1450                                            1 	(obj:9)
t_x_1452                                            1 	(obj:7)
t_x_1456                                            1 	(obj:0)
t_x_1458                                            1 	(obj:19)
t_x_1460                                            1 	(obj:24)
t_x_1468                                            1 	(obj:0)
t_x_1469                                            1 	(obj:23)
t_x_1472                                            1 	(obj:13)
t_x_1473                                            1 	(obj:20)
t_x_1482                                            1 	(obj:9)
t_x_1490                                            1 	(obj:11)
t_x_1494                                            1 	(obj:0)
t_x_1496                                            1 	(obj:7)
t_x_1504                                            1 	(obj:11)
t_x_1506                                            1 	(obj:12)
t_x_1509                                            1 	(obj:15)
t_x_1511                                            1 	(obj:2)
t_x_1512                                            1 	(obj:4)
t_x_1514                                            1 	(obj:27)
t_x_1516                                            1 	(obj:13)
t_x_1520                                            1 	(obj:13)
t_x_1522                                            1 	(obj:5)
t_x_1525                                            1 	(obj:2)
t_x_1526                                            1 	(obj:7)
t_x_1528                                            1 	(obj:17)
t_x_1536                                            1 	(obj:12)
t_x_1539                                            1 	(obj:9)
t_x_1544                                            1 	(obj:20)
t_x_1545                                            1 	(obj:30)
t_x_1549                                            1 	(obj:37)
t_x_1550                                            1 	(obj:60)
t_x_1553                                            1 	(obj:5)
t_x_1558                                            1 	(obj:4)
t_x_1560                                            1 	(obj:30)
t_x_1564                                            1 	(obj:5)
t_x_1567                                            1 	(obj:4)
t_x_1568                                            1 	(obj:6)
t_x_1570                                            1 	(obj:21)
t_x_1572                                            1 	(obj:14)
t_x_1581                                            1 	(obj:10)
t_x_1582                                            1 	(obj:4)
t_x_1584                                            1 	(obj:9)
t_x_1593                                            1 	(obj:73)
t_x_1595                                            1 	(obj:11)
t_x_1597                                            1 	(obj:21)
t_x_1598                                            1 	(obj:2)
t_x_1599                                            1 	(obj:32)
t_x_1600                                            1 	(obj:0)
t_x_1601                                            1 	(obj:9)
t_x_1603                                            1 	(obj:12)
t_x_1609                                            1 	(obj:56)
t_x_1610                                            1 	(obj:14)
t_x_1615                                            1 	(obj:26)
t_x_1617                                            1 	(obj:10)
t_x_1618                                            1 	(obj:24)
t_x_1621                                            1 	(obj:0)
t_x_1622                                            1 	(obj:47)
t_x_1625                                            1 	(obj:37)
t_x_1629                                            1 	(obj:11)
t_x_1633                                            1 	(obj:30)
t_x_1639                                            1 	(obj:4)
t_x_1640                                            1 	(obj:34)
t_x_1644                                            1 	(obj:0)
t_x_1645                                            1 	(obj:40)
t_x_1653                                            1 	(obj:7)
t_x_1654                                            1 	(obj:6)
t_x_1655                                            1 	(obj:5)
t_x_1662                                            1 	(obj:10)
t_x_1663                                            1 	(obj:60)
t_x_1665                                            1 	(obj:5)
t_x_1667                                            1 	(obj:31)
t_x_1668                                            1 	(obj:0)
t_x_1678                                            1 	(obj:14)
t_x_1680                                            1 	(obj:9)
t_x_1682                                            1 	(obj:48)
t_x_1683                                            1 	(obj:36)
t_x_1684                                            1 	(obj:8)
t_x_1692                                            1 	(obj:9)
t_x_1695                                            1 	(obj:17)
t_x_1698                                            1 	(obj:12)
t_x_1699                                            1 	(obj:13)
t_x_1703                                            1 	(obj:19)
t_x_1705                                            1 	(obj:23)
t_x_1711                                            1 	(obj:39)
t_x_1721                                            1 	(obj:11)
t_x_1722                                            1 	(obj:13)
t_x_1724                                            1 	(obj:21)
t_x_1728                                            1 	(obj:20)
t_x_1730                                            1 	(obj:15)
t_x_1733                                            1 	(obj:14)
t_x_1737                                            1 	(obj:24)
t_x_1738                                            1 	(obj:41)
t_x_1740                                            1 	(obj:19)
t_x_1741                                            1 	(obj:76)
t_x_1742                                            1 	(obj:25)
t_x_1743                                            1 	(obj:67)
t_x_1744                                            1 	(obj:37)
t_x_1746                                            1 	(obj:43)
t_x_1747                                            1 	(obj:10)
t_x_1750                                            1 	(obj:39)
t_x_1751                                            1 	(obj:25)
t_x_1753                                            1 	(obj:38)
t_x_1761                                            1 	(obj:23)
t_x_1763                                            1 	(obj:8)
t_x_1764                                            1 	(obj:38)
t_x_1766                                            1 	(obj:11)
t_x_1773                                            1 	(obj:53)
t_x_1775                                            1 	(obj:9)
t_x_1776                                            1 	(obj:0)
t_x_1777                                            1 	(obj:5)
t_x_1779                                            1 	(obj:15)
t_x_1784                                            1 	(obj:22)
t_x_1786                                            1 	(obj:8)
t_x_1787                                            1 	(obj:19)
t_x_1788                                            1 	(obj:17)
t_x_1791                                            1 	(obj:8)
t_x_1794                                            1 	(obj:10)
t_x_1801                                            1 	(obj:14)
t_x_1804                                            1 	(obj:12)
t_x_1807                                            1 	(obj:13)
t_x_1808                                            1 	(obj:33)
t_x_1815                                            1 	(obj:6)
t_x_1816                                            1 	(obj:47)
t_x_1817                                            1 	(obj:14)
t_x_1821                                            1 	(obj:39)
t_x_1828                                            1 	(obj:12)
t_x_1832                                            1 	(obj:14)
t_x_1841                                            1 	(obj:12)
t_x_1845                                            1 	(obj:12)
t_x_1850                                            1 	(obj:5)
t_x_1852                                            1 	(obj:11)
t_x_1853                                            1 	(obj:29)
t_x_1855                                            1 	(obj:4)
t_x_1856                                            1 	(obj:19)
t_x_1859                                            1 	(obj:15)
t_x_1865                                            1 	(obj:24)
t_x_1866                                            1 	(obj:16)
t_x_1869                                            1 	(obj:10)
t_x_1873                                            1 	(obj:9)
t_x_1875                                            1 	(obj:0)
t_x_1876                                            1 	(obj:14)
t_x_1879                                            1 	(obj:9)
t_x_1880                                            1 	(obj:12)
t_x_1883                                            1 	(obj:10)
t_x_1886                                            1 	(obj:0)
t_x_1889                                            1 	(obj:52)
t_x_1892                                            1 	(obj:16)
t_x_1894                                            1 	(obj:19)
t_x_1901                                            1 	(obj:22)
t_x_1905                                            1 	(obj:9)
t_x_1923                                            1 	(obj:3)
t_x_1926                                            1 	(obj:32)
t_x_1927                                            1 	(obj:4)
t_x_1929                                            1 	(obj:0)
t_x_1931                                            1 	(obj:0)
t_x_1945                                            1 	(obj:10)
t_x_1946                                            1 	(obj:14)
t_x_1947                                            1 	(obj:7)
t_x_1949                                            1 	(obj:19)
t_x_1952                                            1 	(obj:2)
t_x_1954                                            1 	(obj:6)
t_x_1960                                            1 	(obj:16)
t_x_1961                                            1 	(obj:1)
t_x_1964                                            1 	(obj:25)
t_x_1970                                            1 	(obj:6)
t_x_1974                                            1 	(obj:28)
t_x_1975                                            1 	(obj:21)
t_x_1978                                            1 	(obj:25)
t_x_1980                                            1 	(obj:12)
t_x_1981                                            1 	(obj:20)
t_x_1990                                            1 	(obj:1)
t_x_1992                                            1 	(obj:40)
t_x_1993                                            1 	(obj:41)
t_x_1994                                            1 	(obj:0)
